c uprop, v00.0, 
c reading from data/prog52.c.cnf
c done reading: 0.003692
p cnf 125 494
-70 -90 0
-74 -90 0
70 74 90 0
70 74 -96 0
-70 -74 -96 0
-70 74 96 0
70 -74 96 0
-79 90 0
-79 -81 0
79 81 -90 0
81 -85 -90 0
-81 -85 90 0
81 85 90 0
-81 85 -90 0
79 -89 0
-89 -92 0
-79 89 92 0
-79 92 -94 0
79 -92 -94 0
79 92 94 0
-79 -92 94 0
89 -95 0
-95 -98 0
-89 95 98 0
-72 -89 98 0
-72 89 -98 0
72 89 98 0
72 -89 -98 0
-68 95 0
-68 -77 0
68 77 -95 0
-67 77 -95 0
-67 -77 95 0
67 77 95 0
67 -77 -95 0
-66 68 0
-66 -83 0
66 -68 83 0
-65 -68 83 0
-65 68 -83 0
65 68 83 0
65 -68 -83 0
-64 66 0
-64 -87 0
64 -66 87 0
-63 -66 87 0
-63 66 -87 0
63 66 87 0
63 -66 -87 0
-62 -70 0
-62 -74 0
62 70 74 0
-61 70 74 0
-61 -70 -74 0
61 -70 74 0
61 70 -74 0
-60 62 0
-60 -81 0
60 -62 81 0
-59 -62 81 0
-59 62 -81 0
59 62 81 0
59 -62 -81 0
-58 60 0
-58 -92 0
58 -60 92 0
-57 -60 92 0
-57 60 -92 0
57 60 92 0
57 -60 -92 0
-56 58 0
-56 -98 0
56 -58 98 0
-58 98 -100 0
58 -98 -100 0
58 98 100 0
-58 -98 100 0
56 -101 0
-77 -101 0
-56 77 101 0
-56 77 -102 0
56 -77 -102 0
56 77 102 0
-56 -77 102 0
101 -103 0
-83 -103 0
83 -101 103 0
83 -101 -104 0
-83 101 -104 0
83 101 104 0
-83 -101 104 0
103 -105 0
-87 -105 0
87 -103 105 0
-71 87 -103 0
-71 -87 103 0
71 87 103 0
71 -87 -103 0
-75 -107 0
75 107 0
-82 107 0
82 -107 0
75 -93 0
-93 -109 0
-75 93 109 0
-75 -99 109 0
75 -99 -109 0
75 99 109 0
-75 99 -109 0
-78 93 0
-78 -112 0
78 -93 112 0
-84 -93 112 0
-84 93 -112 0
84 93 112 0
84 -93 -112 0
78 -88 0
-88 -114 0
-78 88 114 0
-78 114 -116 0
78 -114 -116 0
78 114 116 0
-78 -114 116 0
88 -108 0
-108 -118 0
-88 108 118 0
-88 -110 118 0
88 -110 -118 0
88 110 118 0
-88 110 -118 0
108 -113 0
-113 -120 0
-108 113 120 0
-108 -115 120 0
108 -115 -120 0
108 115 120 0
-108 115 -120 0
113 -119 0
-119 -123 0
-113 119 123 0
-113 -121 123 0
113 -121 -123 0
113 121 123 0
-113 121 -123 0
107 -124 0
-107 124 0
-107 -109 125 0
107 109 -125 0
109 -125 0
107 -125 0
-55 109 -125 0
-55 107 -125 0
-55 -125 0
55 -109 125 0
55 -107 125 0
-55 107 109 0
54 -109 -112 0
54 -112 -125 0
54 -109 -125 0
-54 109 112 0
-54 112 125 0
-54 109 125 0
-53 -54 112 0
-53 -54 109 0
-53 -54 125 0
53 54 -112 0
53 54 -109 0
53 54 -125 0
53 -109 -112 -125 0
-53 109 112 125 0
52 -112 -114 0
52 -54 -114 0
52 -54 -112 0
-52 112 114 0
-52 54 114 0
-52 54 112 0
-51 -52 114 0
-51 -52 112 0
-51 -52 54 0
51 52 -114 0
51 52 -112 0
51 52 -54 0
51 -54 -112 -114 0
-51 54 112 114 0
50 -114 -118 0
50 -52 -118 0
50 -52 -114 0
-50 114 118 0
-50 52 118 0
-50 52 114 0
-49 -50 118 0
-49 -50 114 0
-49 -50 52 0
49 50 -118 0
49 50 -114 0
49 50 -52 0
49 -52 -114 -118 0
-49 52 114 118 0
48 -118 -120 0
48 -50 -120 0
48 -50 -118 0
-48 118 120 0
-48 50 120 0
-48 50 118 0
-47 -48 120 0
-47 -48 118 0
-47 -48 50 0
47 48 -120 0
47 48 -118 0
47 48 -50 0
47 -50 -118 -120 0
-47 50 118 120 0
46 -120 -123 0
46 -48 -123 0
46 -48 -120 0
-46 120 123 0
-46 48 123 0
-46 48 120 0
-45 -46 123 0
-45 -46 120 0
-45 -46 48 0
45 46 -123 0
45 46 -120 0
45 46 -48 0
45 -48 -120 -123 0
-45 48 120 123 0
-44 123 0
-44 46 0
44 -46 -123 0
-43 -46 -123 0
-43 46 123 0
43 46 -123 0
43 -46 123 0
-42 49 0
42 -49 0
41 -47 -107 0
-41 47 107 0
-41 47 0
-41 107 0
-40 -41 47 0
-40 -41 107 0
-40 -41 0
40 41 -47 0
40 41 -107 0
-40 47 107 0
39 -45 -109 0
39 -41 -45 0
39 -41 -109 0
-39 45 109 0
-39 41 45 0
-39 41 109 0
-38 -39 45 0
-38 -39 109 0
-38 -39 41 0
38 39 -45 0
38 39 -109 0
38 39 -41 0
38 -41 -45 -109 0
-38 41 45 109 0
37 -43 -112 0
37 -39 -43 0
37 -39 -112 0
-37 43 112 0
-37 39 43 0
-37 39 112 0
-36 -37 43 0
-36 -37 112 0
-36 -37 39 0
36 37 -43 0
36 37 -112 0
36 37 -39 0
36 -39 -43 -112 0
-36 39 43 112 0
35 -44 -114 0
35 -37 -44 0
35 -37 -114 0
-35 44 114 0
-35 37 44 0
-35 37 114 0
-34 -35 44 0
-34 -35 114 0
-34 -35 37 0
34 35 -44 0
34 35 -114 0
34 35 -37 0
34 -37 -44 -114 0
-34 37 44 114 0
-33 118 0
-33 35 0
33 -35 -118 0
-32 -35 -118 0
-32 35 118 0
32 35 -118 0
32 -35 118 0
-31 120 0
-31 33 0
31 -33 -120 0
-30 -33 -120 0
-30 33 120 0
30 33 -120 0
30 -33 120 0
-29 123 0
-29 31 0
29 -31 -123 0
-28 -31 -123 0
-28 31 123 0
28 31 -123 0
28 -31 123 0
-27 -124 0
27 124 0
-26 124 0
26 -124 0
-25 27 0
-25 -55 0
25 -27 55 0
-24 -27 55 0
-24 27 -55 0
24 27 55 0
24 -27 -55 0
-23 25 0
-23 -53 0
23 -25 53 0
-22 -25 53 0
-22 25 -53 0
22 25 53 0
22 -25 -53 0
-21 23 0
-21 -51 0
21 -23 51 0
-20 -23 51 0
-20 23 -51 0
20 23 51 0
20 -23 -51 0
-19 21 0
-19 -42 0
19 -21 42 0
-18 -21 42 0
-18 21 -42 0
18 21 42 0
18 -21 -42 0
-17 19 0
-17 -40 0
17 -19 40 0
-16 -19 40 0
-16 19 -40 0
16 19 40 0
16 -19 -40 0
-15 17 0
-15 -38 0
15 -17 38 0
-14 -17 38 0
-14 17 -38 0
14 17 38 0
14 -17 -38 0
-13 15 0
-13 -36 0
13 -15 36 0
-12 -15 36 0
-12 15 -36 0
12 15 36 0
12 -15 -36 0
-11 13 0
-11 -34 0
11 -13 34 0
-10 -13 34 0
-10 13 -34 0
10 13 34 0
10 -13 -34 0
-9 11 0
-9 -32 0
9 -11 32 0
-8 -11 32 0
-8 11 -32 0
8 11 32 0
8 -11 -32 0
-7 9 0
-7 -30 0
7 -9 30 0
-9 30 -69 0
9 -30 -69 0
9 30 69 0
-9 -30 69 0
7 -73 0
-28 -73 0
-7 28 73 0
-7 28 -80 0
7 -28 -80 0
7 28 80 0
-7 -28 80 0
73 -91 0
-29 -91 0
29 -73 91 0
29 -73 -97 0
-29 73 -97 0
29 73 97 0
-29 -73 97 0
70 -76 0
-76 124 0
-70 76 -124 0
-70 -124 0
70 124 0
-55 -74 86 0
-74 -76 86 0
-55 -76 86 0
55 74 -86 0
74 76 -86 0
55 76 -86 0
-74 86 0
-55 86 0
-76 86 0
-55 -74 -76 0
-53 -81 106 0
-81 -86 106 0
-53 -86 106 0
53 81 -106 0
81 86 -106 0
53 86 -106 0
-81 106 0
-53 106 0
-86 106 0
-53 -81 -86 0
-51 -92 111 0
-92 -106 111 0
-51 -106 111 0
51 92 -111 0
92 106 -111 0
51 106 -111 0
92 -111 0
51 -111 0
106 -111 0
51 92 106 0
-42 -98 117 0
-98 -111 117 0
-42 -111 117 0
42 98 -117 0
98 111 -117 0
42 111 -117 0
98 -117 0
42 -117 0
111 -117 0
42 98 111 0
-40 -77 122 0
-77 -117 122 0
-40 -117 122 0
40 77 -122 0
77 117 -122 0
40 117 -122 0
77 -122 0
40 -122 0
117 -122 0
40 77 117 0
6 -38 -83 0
6 -83 -122 0
6 -38 -122 0
-6 38 83 0
-6 83 122 0
-6 38 122 0
6 -83 0
6 -38 0
6 -122 0
-38 -83 -122 0
5 -36 -87 0
5 -6 -87 0
5 -6 -36 0
-5 36 87 0
-5 6 87 0
-5 6 36 0
5 -87 0
5 -36 0
5 -6 0
-6 -36 -87 0
-4 34 0
-4 5 0
4 -5 -34 0
5 -34 0
-5 34 0
-3 32 0
-3 4 0
3 -4 -32 0
4 -32 0
-4 32 0
-2 30 0
-2 3 0
2 -3 -30 0
3 -30 0
-3 30 0
-1 28 0
-1 2 0
1 -2 -28 0
2 -28 0
-2 28 0
-1 -29 0
1 -29 0
-1 29 0
